WARNING: for repeatability, setting FPU to use double precision
============================[ Problem Statistics ]=============================
|                                                                             |
|  Number of variables:           100                                         |
|  Number of clauses:             449                                         |
|  Parse time:                   0.00 s                                       |
|  Eliminated clauses:           0.00 Mb                                      |
|  Simplification time:          0.00 s                                       |
|                                                                             |
============================[ Search Statistics ]==============================
| Conflicts |          ORIGINAL         |          LEARNT          | Progress |
|           |    Vars  Clauses Literals |    Limit  Clauses Lit/Cl |          |
===============================================================================
|       100 |      99      447     1354 |      163      100      7 |  0.010 % |
===============================================================================
restarts              : 2
conflicts             : 129            (50787 /sec)
decisions             : 179            (0.00 % random) (70472 /sec)
propagations          : 3225           (1269685 /sec)
conflict literals     : 894            (17.76 % deleted)
Memory used           : 13.00 MB
CPU time              : 0.00254 s

SATISFIABLE
